tsp_instances/TSP20/instance96.tsp
NODE_COORD_SECTION
0 86 127
1 60 27
2 145 124
3 33 40
4 121 189
5 179 127
6 116 69
7 189 154
8 21 194
9 195 55
10 35 186
11 128 48
12 135 123
13 119 69
14 20 107
15 77 4
16 197 168
17 31 65
18 183 77
19 139 189
