tsp_instances/TSP20/instance96.opt.tour
TOUR_SECTION
1
11
9
15
18
4
2
16
7
14
12
10
19
6
8
17
20
5
3
13
-1